Traveling Salesman Problem/TSP_generados/Aleatorio1620395406_17.tsp
NAME: Aleatorio1620395406_17.tsp
COMMENT: Randomly generated scenario
TYPE: TSP
DIMENSION: 17
EDGE_WEIGHT_TYPE: ATT
NODE_COORD_SECTION
1 41.45 32.25
2 26.42 27.68
3 43.56 43.88
4 12.43 39.62
5 36.13 42.83
6 2.85 44.95
7 6.49 42.02
8 14.32 21.0
9 31.45 34.59
10 48.59 41.21
11 32.13 33.44
12 6.03 8.85
13 30.16 33.44
14 1.36 7.53
15 27.19 31.43
16 0.34 5.27
17 33.67 38.18
