Traveling Salesman Problem/TSP_generados/Aleatorio1620395406_17.opt.tour
NAME: Aleatorio1620395406_17.opt.tour
COMMENT: Optimal solution for Aleatorio1620395406_17 (157.34029655605252)
TYPE: TOUR
DIMENSION: 17
TOUR_SECTION
1 10 3 5 17 4 7 6 14 16 12 8 2 15 13 9 11
-1
EOF
